letting initialStacks = [2, 11, 24, 3, 29, 17, 48, 39, 25, 40, 7, 26, 35, 14, 37, 18, 22, 10, 30, 16, 41, 47, 5, 4, 15, 36, 28, 46, 38, 44, 20, 1, 45, 51, 21, 34, 31, 50, 49, 8, 42, 9, 32, 33, 23, 43, 13, 19, 6, 12, 27]
